TCS_Benchmarks/redos_fix/corpus2_output_distinct_4694_4693_16_0.smt2
(set-logic QF_S)
(declare-const x String)
(assert (str.in.re x (re.inter  (re.++ (re.* (re.union (re.range "\u{00}" "\u{09}") (re.range "\u{0b}" "\u{0c}") (re.range "\u{0e}" "\u{84}") (re.range "\u{86}" "\u{ff}")) ) (re.* (re.comp  (re.union  (str.to.re "\u{20}")  (str.to_re "\u{0A}"))) ))  (re.++ (re.* (re.union (re.range "\u{00}" "\u{09}") (re.range "\u{0b}" "\u{0c}") (re.range "\u{0e}" "\u{84}") (re.range "\u{86}" "\u{ff}")) ) (re.++  (re.++  (re.union  (re.++  (str.to.re "\u{48}") (re.++  (str.to.re "\u{45}") (re.++  (str.to.re "\u{41}")  (str.to.re "\u{44}")))) (re.union  (re.++  (str.to.re "\u{47}") (re.++  (str.to.re "\u{45}")  (str.to.re "\u{54}"))) (re.union  (re.++  (str.to.re "\u{50}") (re.++  (str.to.re "\u{4f}") (re.++  (str.to.re "\u{53}")  (str.to.re "\u{54}")))) (re.union  (re.++  (str.to.re "\u{50}") (re.++  (str.to.re "\u{41}") (re.++  (str.to.re "\u{54}") (re.++  (str.to.re "\u{43}")  (str.to.re "\u{48}"))))) (re.union  (re.++  (str.to.re "\u{50}") (re.++  (str.to.re "\u{55}")  (str.to.re "\u{54}")))  (re.++  (str.to.re "\u{44}") (re.++  (str.to.re "\u{45}") (re.++  (str.to.re "\u{4c}") (re.++  (str.to.re "\u{45}") (re.++  (str.to.re "\u{54}")  (str.to.re "\u{45}"))))))))))) (re.++ (re.+ (re.union (re.range "\u{09}" "\u{0d}") (re.range "\u{20}" "\u{20}") (re.range "\u{85}" "\u{85}") (re.range "\u{a0}" "\u{a0}")) )  (str.to.re "\u{2f}"))) (re.* (re.comp  (re.union  (str.to.re "\u{20}")  (str.to_re "\u{0A}"))) ))) )))
(check-sat)
(get-model)