TCS_Benchmarks/redos_fix/corpus2_output_distinct_4694_4693_16_0.txt
(.*)([^ \n]*)
(.*)((HEAD|GET|POST|PATCH|PUT|DELETE)\s+\/)([^ \n]*)